n=10;
hearts=96;
clubs=55;
spades=100;
diamonds=28;
blocked=32;
m=array2d(1..n, 1..n,[
	5,5,3,_,5,_,5,3,4,_,
	_,5,3,5,_,1,5,5,_,5,
	3,_,_,_,4,_,5,_,_,_,
	5,_,_,_,3,_,5,5,5,_,
	_,5,1,_,_,_,_,_,_,5,
	5,_,5,1,2,5,_,5,4,4,
	5,_,_,5,_,5,_,_,_,5,
	_,5,5,_,_,_,5,5,2,5,
	3,_,5,_,4,1,4,2,_,_,
	5,_,4,1,_,4,_,2,_,5
]);
